100
1000
200
200
200
200
200
199
198
198
197
196
195
195
193
192
191
191
190
189
189
188
188
188
187
187
186
186
186
186
186
186
185
184
184
183
183
183
182
181
180
180
179
178
177
177
177
177
176
176
176
175
174
174
174
173
173
173
172
171
169
168
168
168
167
166
166
166
166
166
166
165
165
164
164
164
164
164
163
161
161
161
160
160
160
160
160
159
159
157
155
155
155
154
154
152
152
152
152
151
150
150
